(set-logic BV) (define-fun origCir ((n133 Bool) (n127 Bool) (n116 Bool) (n105 Bool)) Bool (not (and (not (and n133 (not (and n116 n105)))) (not (and n127 (and n116 n105)))))) (synth-fun skel ((n133 Bool) (n127 Bool) (n116 Bool) (n105 Bool)) Bool) (declare-var n133 Bool) (declare-var n127 Bool) (declare-var n116 Bool) (declare-var n105 Bool) (constraint (= (origCir n133 n127 n116 n105) (skel n133 n127 n116 n105))) (check-synth)
